NAME : ch130
COMMENT : 130
TYPE : TOUR
DIMENSION : 130
TOUR_LENGTH : 6188
ERROR : 0.012766
TOUR_SECTION
17
45
19
117
79
1
49
129
70
0
40
38
116
111
114
27
61
104
127
15
44
4
10
75
108
60
128
123
63
68
85
87
25
6
96
69
106
126
103
42
62
67
47
24
97
109
88
93
112
31
35
83
118
110
122
100
81
56
8
55
64
51
74
73
98
72
91
90
71
48
57
119
52
105
37
11
86
80
102
76
28
14
23
94
78
115
99
18
26
30
33
16
53
34
3
43
41
50
59
54
121
5
101
9
13
95
66
12
22
46
39
21
36
92
32
20
125
120
77
65
84
124
89
58
29
82
2
113
107
7
-1
EOF
